Base=4;
C=66;
start_setup=[|0,0,0,0,0,13,0,4,14,0,0,0,0,2,0,16
             |1,0,0,0,0,0,0,0,0,0,13,0,5,0,0,11
             |0,4,0,0,0,6,0,12,0,0,0,0,0,0,0,0
             |0,0,0,0,2,14,7,0,0,0,3,0,0,0,8,0
             |0,0,0,4,0,0,0,0,0,0,0,0,11,5,15,0
             |0,0,0,0,0,0,0,6,0,0,12,0,0,9,0,0
             |0,0,0,2,0,0,9,0,0,0,0,11,0,0,7,0
             |15,0,12,0,0,0,0,0,0,9,0,0,2,0,1,0
             |0,2,1,11,9,0,0,0,13,0,0,0,0,0,0,0
             |0,0,0,0,1,0,0,0,0,2,11,0,0,0,13,7
             |0,0,0,0,0,0,13,0,0,1,4,0,14,0,11,15
             |7,13,0,0,0,0,0,0,5,0,9,0,0,0,0,0
             |4,3,0,0,0,7,0,0,0,0,0,9,16,0,0,0
             |8,0,0,0,0,0,14,0,4,0,2,0,12,11,10,0
             |0,11,10,0,0,3,0,1,0,15,14,13,0,0,0,0
             |0,0,0,0,0,11,0,9,8,7,6,5,4,3,0,0
|];
target_sum=[11,27,24,34,14,9,57,31,46,76,13,12,83,10,28,111,40,41,24,22,8,3,25,16,15,25,4,8,30,41,20,23,35,6,38,21,32,36,52,38,46,2,1,34,36,59,35,66,3,88,63,31,73,38,13,16,62,36,22,26,117,62,22,1,1,34];
tile2cage=[
16,18,18,18,45,45,45,45,30,59,59,59,50,50,50,50
,16,18,18,57,57,57,25,56,30,30,30,17,54,54,50,50
,16,16,16,57,57,57,57,36,36,21,17,17,17,54,50,14
,16,16,16,57,57,15,40,40,40,13,13,13,12,54,50,27
,61,61,16,16,16,15,15,40,40,13,13,13,12,50,50,38
,61,61,16,16,16,65,31,31,10,13,13,13,9,9,38,38
,61,61,61,61,61,19,31,22,10,66,66,1,9,9,26,26
,61,61,33,33,33,19,47,47,10,10,66,34,9,9,26,52
,61,61,64,44,44,47,47,60,10,10,8,6,6,35,26,52
,63,23,23,44,43,48,60,60,10,42,8,5,7,35,52,52
,63,23,4,44,11,48,48,48,10,10,8,7,7,35,62,62
,63,55,4,4,11,58,58,48,48,10,8,7,39,62,62,62
,2,2,49,49,28,58,58,48,48,3,3,7,39,62,62,29
,2,51,24,46,46,37,37,53,53,3,20,7,39,39,39,29
,2,51,24,46,46,37,32,53,53,53,20,41,41,41,41,29
,51,51,51,46,46,32,32,53,53,53,20,41,41,41,29,29];
